src/zimpl/lpfiles/knapsack50nr9.lp
\ This file was automatically generated by Zimpl
\ param file := "instances/knapsack50nr9.txt";
\ param n := read file as "1n" use 1 comment "#";
\ do print n;
\ param m := read file as "1n" skip 1 use 1 comment "#";
\ do print m;
\ param k := read file as "1n" skip 2 use 1 comment "#";
\ do print k;
\ set Items := {1 to n};
\ set Knapsacks := {1 to m};
\ set Capacities := {1 to k};
\ param p[Items] := read file as "1n" skip 3 use n comment "#";
\ param w[Items*Capacities] := read file as "n+" skip 3+n use n comment "#";
\ param c[Knapsacks*Capacities] := read file as "n+" skip 3+2*n use m comment "#";
\ var x[Knapsacks * Items] binary;
\ maximize profit: sum <i> in Knapsacks: sum <j> in Items: p[j]* x[i,j];
\ subto cap: forall <i> in Knapsacks: forall <h> in Capacities: sum <j> in Items: w[j,h]*x[i,j] <= c[i,h];
\ subto one: forall <j> in Items: sum <i> in Knapsacks: x[i,j] <= 1;
\Problem name: zimplfiles/knapsack50nr9.zpl
Maximize
 profit:  +548 x#1#1 +64 x#1#2 +159 x#1#3 +435 x#1#4 +135 x#1#5 +694 x#1#6
  +483 x#1#7 +827 x#1#8 +835 x#1#9 +757 x#1#10 +657 x#1#11 +867 x#1#12
  +416 x#1#13 +238 x#1#14 +383 x#1#15 +447 x#1#16 +914 x#1#17 +335 x#1#18
  +21 x#1#19 +594 x#1#20 +254 x#1#21 +930 x#1#22 +583 x#1#23 +741 x#1#24
  +837 x#1#25 +820 x#1#26 +240 x#1#27 +120 x#1#28 +463 x#1#29 +665 x#1#30
  +279 x#1#31 +830 x#1#32 +48 x#1#33 +332 x#1#34 +204 x#1#35 +468 x#1#36
  +221 x#1#37 +172 x#1#38 +321 x#1#39 +241 x#1#40 +261 x#1#41 +943 x#1#42
  +156 x#1#43 +790 x#1#44 +275 x#1#45 +273 x#1#46 +995 x#1#47 +917 x#1#48
  +594 x#1#49 +772 x#1#50 +548 x#2#1 +64 x#2#2 +159 x#2#3 +435 x#2#4
  +135 x#2#5 +694 x#2#6 +483 x#2#7 +827 x#2#8 +835 x#2#9 +757 x#2#10
  +657 x#2#11 +867 x#2#12 +416 x#2#13 +238 x#2#14 +383 x#2#15 +447 x#2#16
  +914 x#2#17 +335 x#2#18 +21 x#2#19 +594 x#2#20 +254 x#2#21 +930 x#2#22
  +583 x#2#23 +741 x#2#24 +837 x#2#25 +820 x#2#26 +240 x#2#27 +120 x#2#28
  +463 x#2#29 +665 x#2#30 +279 x#2#31 +830 x#2#32 +48 x#2#33 +332 x#2#34
  +204 x#2#35 +468 x#2#36 +221 x#2#37 +172 x#2#38 +321 x#2#39 +241 x#2#40
  +261 x#2#41 +943 x#2#42 +156 x#2#43 +790 x#2#44 +275 x#2#45 +273 x#2#46
  +995 x#2#47 +917 x#2#48 +594 x#2#49 +772 x#2#50 +548 x#3#1 +64 x#3#2
  +159 x#3#3 +435 x#3#4 +135 x#3#5 +694 x#3#6 +483 x#3#7 +827 x#3#8
  +835 x#3#9 +757 x#3#10 +657 x#3#11 +867 x#3#12 +416 x#3#13 +238 x#3#14
  +383 x#3#15 +447 x#3#16 +914 x#3#17 +335 x#3#18 +21 x#3#19 +594 x#3#20
  +254 x#3#21 +930 x#3#22 +583 x#3#23 +741 x#3#24 +837 x#3#25 +820 x#3#26
  +240 x#3#27 +120 x#3#28 +463 x#3#29 +665 x#3#30 +279 x#3#31 +830 x#3#32
  +48 x#3#33 +332 x#3#34 +204 x#3#35 +468 x#3#36 +221 x#3#37 +172 x#3#38
  +321 x#3#39 +241 x#3#40 +261 x#3#41 +943 x#3#42 +156 x#3#43 +790 x#3#44
  +275 x#3#45 +273 x#3#46 +995 x#3#47 +917 x#3#48 +594 x#3#49 +772 x#3#50
  +548 x#4#1 +64 x#4#2 +159 x#4#3 +435 x#4#4 +135 x#4#5 +694 x#4#6
  +483 x#4#7 +827 x#4#8 +835 x#4#9 +757 x#4#10 +657 x#4#11 +867 x#4#12
  +416 x#4#13 +238 x#4#14 +383 x#4#15 +447 x#4#16 +914 x#4#17 +335 x#4#18
  +21 x#4#19 +594 x#4#20 +254 x#4#21 +930 x#4#22 +583 x#4#23 +741 x#4#24
  +837 x#4#25 +820 x#4#26 +240 x#4#27 +120 x#4#28 +463 x#4#29 +665 x#4#30
  +279 x#4#31 +830 x#4#32 +48 x#4#33 +332 x#4#34 +204 x#4#35 +468 x#4#36
  +221 x#4#37 +172 x#4#38 +321 x#4#39 +241 x#4#40 +261 x#4#41 +943 x#4#42
  +156 x#4#43 +790 x#4#44 +275 x#4#45 +273 x#4#46 +995 x#4#47 +917 x#4#48
  +594 x#4#49 +772 x#4#50 +548 x#5#1 +64 x#5#2 +159 x#5#3 +435 x#5#4
  +135 x#5#5 +694 x#5#6 +483 x#5#7 +827 x#5#8 +835 x#5#9 +757 x#5#10
  +657 x#5#11 +867 x#5#12 +416 x#5#13 +238 x#5#14 +383 x#5#15 +447 x#5#16
  +914 x#5#17 +335 x#5#18 +21 x#5#19 +594 x#5#20 +254 x#5#21 +930 x#5#22
  +583 x#5#23 +741 x#5#24 +837 x#5#25 +820 x#5#26 +240 x#5#27 +120 x#5#28
  +463 x#5#29 +665 x#5#30 +279 x#5#31 +830 x#5#32 +48 x#5#33 +332 x#5#34
  +204 x#5#35 +468 x#5#36 +221 x#5#37 +172 x#5#38 +321 x#5#39 +241 x#5#40
  +261 x#5#41 +943 x#5#42 +156 x#5#43 +790 x#5#44 +275 x#5#45 +273 x#5#46
  +995 x#5#47 +917 x#5#48 +594 x#5#49 +772 x#5#50
Subject to
 cap_1:
  +433 x#1#50 +662 x#1#49 +92 x#1#48 +208 x#1#47 +36 x#1#46 +689 x#1#45
  +658 x#1#44 +342 x#1#43 +764 x#1#42 +609 x#1#41 +414 x#1#40 +681 x#1#39
  +523 x#1#38 +150 x#1#37 +781 x#1#36 +98 x#1#35 +308 x#1#34 +715 x#1#33
  +387 x#1#32 +220 x#1#31 +260 x#1#30 +42 x#1#29 +405 x#1#28 +204 x#1#27
  +299 x#1#26 +779 x#1#25 +460 x#1#24 +568 x#1#23 +746 x#1#22 +628 x#1#21
  +298 x#1#20 +537 x#1#19 +540 x#1#18 +743 x#1#17 +349 x#1#16 +138 x#1#15
  +807 x#1#14 +608 x#1#13 +777 x#1#12 +273 x#1#11 +650 x#1#10 +534 x#1#9
  +583 x#1#8 +58 x#1#7 +621 x#1#6 +167 x#1#5 +418 x#1#4 +905 x#1#3
  +414 x#1#2 +102 x#1#1 <= 1273
 cap_2:
  +422 x#1#50 +331 x#1#49 +551 x#1#48 +966 x#1#47 +704 x#1#46 +857 x#1#45
  +625 x#1#44 +273 x#1#43 +223 x#1#42 +500 x#1#41 +670 x#1#40 +843 x#1#39
  +738 x#1#38 +471 x#1#37 +219 x#1#36 +509 x#1#35 +179 x#1#34 +247 x#1#33
  +293 x#1#32 +897 x#1#31 +100 x#1#30 +956 x#1#29 +357 x#1#28 +123 x#1#27
  +978 x#1#26 +888 x#1#25 +332 x#1#24 +275 x#1#23 +900 x#1#22 +431 x#1#21
  +783 x#1#20 +432 x#1#19 +124 x#1#18 +413 x#1#17 +788 x#1#16 +518 x#1#15
  +877 x#1#14 +282 x#1#13 +338 x#1#12 +984 x#1#11 +747 x#1#10 +305 x#1#9
  +133 x#1#8 +734 x#1#7 +454 x#1#6 +163 x#1#5 +327 x#1#4 +369 x#1#3
  +686 x#1#2 +16 x#1#1 <= 1747
 cap_3:
  +107 x#1#50 +237 x#1#49 +638 x#1#48 +363 x#1#47 +416 x#1#46 +390 x#1#45
  +155 x#1#44 +116 x#1#43 +518 x#1#42 +127 x#1#41 +62 x#1#40 +241 x#1#39
  +152 x#1#38 +237 x#1#37 +539 x#1#36 +440 x#1#35 +825 x#1#34 +333 x#1#33
  +877 x#1#32 +440 x#1#31 +470 x#1#30 +369 x#1#29 +35 x#1#28 +674 x#1#27
  +433 x#1#26 +619 x#1#25 +392 x#1#24 +801 x#1#23 +987 x#1#22 +127 x#1#21
  +828 x#1#20 +604 x#1#19 +358 x#1#18 +234 x#1#17 +118 x#1#16 +264 x#1#15
  +35 x#1#14 +743 x#1#13 +819 x#1#12 +232 x#1#11 +223 x#1#10 +582 x#1#9
  +478 x#1#8 +718 x#1#7 +493 x#1#6 +572 x#1#5 +975 x#1#4 +729 x#1#3
  +257 x#1#2 +232 x#1#1 <= 1373
 cap_4:
  +508 x#1#50 +366 x#1#49 +390 x#1#48 +355 x#1#47 +185 x#1#46 +442 x#1#45
  +856 x#1#44 +433 x#1#43 +100 x#1#42 +439 x#1#41 +941 x#1#40 +569 x#1#39
  +341 x#1#38 +434 x#1#37 +488 x#1#36 +982 x#1#35 +241 x#1#34 +700 x#1#33
  +996 x#1#32 +78 x#1#31 +276 x#1#30 +335 x#1#29 +825 x#1#28 +728 x#1#27
  +896 x#1#26 +583 x#1#25 +511 x#1#24 +501 x#1#23 +883 x#1#22 +890 x#1#21
  +584 x#1#20 +327 x#1#19 +453 x#1#18 +248 x#1#17 +697 x#1#16 +556 x#1#15
  +623 x#1#14 +611 x#1#13 +554 x#1#12 +699 x#1#11 +932 x#1#10 +375 x#1#9
  +57 x#1#8 +21 x#1#7 +339 x#1#6 +843 x#1#5 +250 x#1#4 +877 x#1#3
  +723 x#1#2 +814 x#1#1 <= 1614
 cap_5:
  +856 x#1#50 +349 x#1#49 +643 x#1#48 +860 x#1#47 +737 x#1#46 +479 x#1#45
  +714 x#1#44 +719 x#1#43 +644 x#1#42 +699 x#1#41 +388 x#1#40 +383 x#1#39
  +32 x#1#38 +796 x#1#37 +58 x#1#36 +975 x#1#35 +6 x#1#34 +363 x#1#33
  +180 x#1#32 +33 x#1#31 +192 x#1#30 +599 x#1#29 +77 x#1#28 +501 x#1#27
  +434 x#1#26 +115 x#1#25 +860 x#1#24 +112 x#1#23 +234 x#1#22 +814 x#1#21
  +911 x#1#20 +688 x#1#19 +186 x#1#18 +348 x#1#17 +232 x#1#16 +996 x#1#15
  +874 x#1#14 +671 x#1#13 +338 x#1#12 +878 x#1#11 +592 x#1#10 +434 x#1#9
  +18 x#1#8 +755 x#1#7 +865 x#1#6 +370 x#1#5 +32 x#1#4 +590 x#1#3
  +223 x#1#2 +509 x#1#1 <= 1164
 cap_6:
  +433 x#2#50 +662 x#2#49 +92 x#2#48 +208 x#2#47 +36 x#2#46 +689 x#2#45
  +658 x#2#44 +342 x#2#43 +764 x#2#42 +609 x#2#41 +414 x#2#40 +681 x#2#39
  +523 x#2#38 +150 x#2#37 +781 x#2#36 +98 x#2#35 +308 x#2#34 +715 x#2#33
  +387 x#2#32 +220 x#2#31 +260 x#2#30 +42 x#2#29 +405 x#2#28 +204 x#2#27
  +299 x#2#26 +779 x#2#25 +460 x#2#24 +568 x#2#23 +746 x#2#22 +628 x#2#21
  +298 x#2#20 +537 x#2#19 +540 x#2#18 +743 x#2#17 +349 x#2#16 +138 x#2#15
  +807 x#2#14 +608 x#2#13 +777 x#2#12 +273 x#2#11 +650 x#2#10 +534 x#2#9
  +583 x#2#8 +58 x#2#7 +621 x#2#6 +167 x#2#5 +418 x#2#4 +905 x#2#3
  +414 x#2#2 +102 x#2#1 <= 1446
 cap_7:
  +422 x#2#50 +331 x#2#49 +551 x#2#48 +966 x#2#47 +704 x#2#46 +857 x#2#45
  +625 x#2#44 +273 x#2#43 +223 x#2#42 +500 x#2#41 +670 x#2#40 +843 x#2#39
  +738 x#2#38 +471 x#2#37 +219 x#2#36 +509 x#2#35 +179 x#2#34 +247 x#2#33
  +293 x#2#32 +897 x#2#31 +100 x#2#30 +956 x#2#29 +357 x#2#28 +123 x#2#27
  +978 x#2#26 +888 x#2#25 +332 x#2#24 +275 x#2#23 +900 x#2#22 +431 x#2#21
  +783 x#2#20 +432 x#2#19 +124 x#2#18 +413 x#2#17 +788 x#2#16 +518 x#2#15
  +877 x#2#14 +282 x#2#13 +338 x#2#12 +984 x#2#11 +747 x#2#10 +305 x#2#9
  +133 x#2#8 +734 x#2#7 +454 x#2#6 +163 x#2#5 +327 x#2#4 +369 x#2#3
  +686 x#2#2 +16 x#2#1 <= 2007
 cap_8:
  +107 x#2#50 +237 x#2#49 +638 x#2#48 +363 x#2#47 +416 x#2#46 +390 x#2#45
  +155 x#2#44 +116 x#2#43 +518 x#2#42 +127 x#2#41 +62 x#2#40 +241 x#2#39
  +152 x#2#38 +237 x#2#37 +539 x#2#36 +440 x#2#35 +825 x#2#34 +333 x#2#33
  +877 x#2#32 +440 x#2#31 +470 x#2#30 +369 x#2#29 +35 x#2#28 +674 x#2#27
  +433 x#2#26 +619 x#2#25 +392 x#2#24 +801 x#2#23 +987 x#2#22 +127 x#2#21
  +828 x#2#20 +604 x#2#19 +358 x#2#18 +234 x#2#17 +118 x#2#16 +264 x#2#15
  +35 x#2#14 +743 x#2#13 +819 x#2#12 +232 x#2#11 +223 x#2#10 +582 x#2#9
  +478 x#2#8 +718 x#2#7 +493 x#2#6 +572 x#2#5 +975 x#2#4 +729 x#2#3
  +257 x#2#2 +232 x#2#1 <= 1724
 cap_9:
  +508 x#2#50 +366 x#2#49 +390 x#2#48 +355 x#2#47 +185 x#2#46 +442 x#2#45
  +856 x#2#44 +433 x#2#43 +100 x#2#42 +439 x#2#41 +941 x#2#40 +569 x#2#39
  +341 x#2#38 +434 x#2#37 +488 x#2#36 +982 x#2#35 +241 x#2#34 +700 x#2#33
  +996 x#2#32 +78 x#2#31 +276 x#2#30 +335 x#2#29 +825 x#2#28 +728 x#2#27
  +896 x#2#26 +583 x#2#25 +511 x#2#24 +501 x#2#23 +883 x#2#22 +890 x#2#21
  +584 x#2#20 +327 x#2#19 +453 x#2#18 +248 x#2#17 +697 x#2#16 +556 x#2#15
  +623 x#2#14 +611 x#2#13 +554 x#2#12 +699 x#2#11 +932 x#2#10 +375 x#2#9
  +57 x#2#8 +21 x#2#7 +339 x#2#6 +843 x#2#5 +250 x#2#4 +877 x#2#3
  +723 x#2#2 +814 x#2#1 <= 2100
 cap_10:
  +856 x#2#50 +349 x#2#49 +643 x#2#48 +860 x#2#47 +737 x#2#46 +479 x#2#45
  +714 x#2#44 +719 x#2#43 +644 x#2#42 +699 x#2#41 +388 x#2#40 +383 x#2#39
  +32 x#2#38 +796 x#2#37 +58 x#2#36 +975 x#2#35 +6 x#2#34 +363 x#2#33
  +180 x#2#32 +33 x#2#31 +192 x#2#30 +599 x#2#29 +77 x#2#28 +501 x#2#27
  +434 x#2#26 +115 x#2#25 +860 x#2#24 +112 x#2#23 +234 x#2#22 +814 x#2#21
  +911 x#2#20 +688 x#2#19 +186 x#2#18 +348 x#2#17 +232 x#2#16 +996 x#2#15
  +874 x#2#14 +671 x#2#13 +338 x#2#12 +878 x#2#11 +592 x#2#10 +434 x#2#9
  +18 x#2#8 +755 x#2#7 +865 x#2#6 +370 x#2#5 +32 x#2#4 +590 x#2#3
  +223 x#2#2 +509 x#2#1 <= 1052
 cap_11:
  +433 x#3#50 +662 x#3#49 +92 x#3#48 +208 x#3#47 +36 x#3#46 +689 x#3#45
  +658 x#3#44 +342 x#3#43 +764 x#3#42 +609 x#3#41 +414 x#3#40 +681 x#3#39
  +523 x#3#38 +150 x#3#37 +781 x#3#36 +98 x#3#35 +308 x#3#34 +715 x#3#33
  +387 x#3#32 +220 x#3#31 +260 x#3#30 +42 x#3#29 +405 x#3#28 +204 x#3#27
  +299 x#3#26 +779 x#3#25 +460 x#3#24 +568 x#3#23 +746 x#3#22 +628 x#3#21
  +298 x#3#20 +537 x#3#19 +540 x#3#18 +743 x#3#17 +349 x#3#16 +138 x#3#15
  +807 x#3#14 +608 x#3#13 +777 x#3#12 +273 x#3#11 +650 x#3#10 +534 x#3#9
  +583 x#3#8 +58 x#3#7 +621 x#3#6 +167 x#3#5 +418 x#3#4 +905 x#3#3
  +414 x#3#2 +102 x#3#1 <= 1731
 cap_12:
  +422 x#3#50 +331 x#3#49 +551 x#3#48 +966 x#3#47 +704 x#3#46 +857 x#3#45
  +625 x#3#44 +273 x#3#43 +223 x#3#42 +500 x#3#41 +670 x#3#40 +843 x#3#39
  +738 x#3#38 +471 x#3#37 +219 x#3#36 +509 x#3#35 +179 x#3#34 +247 x#3#33
  +293 x#3#32 +897 x#3#31 +100 x#3#30 +956 x#3#29 +357 x#3#28 +123 x#3#27
  +978 x#3#26 +888 x#3#25 +332 x#3#24 +275 x#3#23 +900 x#3#22 +431 x#3#21
  +783 x#3#20 +432 x#3#19 +124 x#3#18 +413 x#3#17 +788 x#3#16 +518 x#3#15
  +877 x#3#14 +282 x#3#13 +338 x#3#12 +984 x#3#11 +747 x#3#10 +305 x#3#9
  +133 x#3#8 +734 x#3#7 +454 x#3#6 +163 x#3#5 +327 x#3#4 +369 x#3#3
  +686 x#3#2 +16 x#3#1 <= 2022
 cap_13:
  +107 x#3#50 +237 x#3#49 +638 x#3#48 +363 x#3#47 +416 x#3#46 +390 x#3#45
  +155 x#3#44 +116 x#3#43 +518 x#3#42 +127 x#3#41 +62 x#3#40 +241 x#3#39
  +152 x#3#38 +237 x#3#37 +539 x#3#36 +440 x#3#35 +825 x#3#34 +333 x#3#33
  +877 x#3#32 +440 x#3#31 +470 x#3#30 +369 x#3#29 +35 x#3#28 +674 x#3#27
  +433 x#3#26 +619 x#3#25 +392 x#3#24 +801 x#3#23 +987 x#3#22 +127 x#3#21
  +828 x#3#20 +604 x#3#19 +358 x#3#18 +234 x#3#17 +118 x#3#16 +264 x#3#15
  +35 x#3#14 +743 x#3#13 +819 x#3#12 +232 x#3#11 +223 x#3#10 +582 x#3#9
  +478 x#3#8 +718 x#3#7 +493 x#3#6 +572 x#3#5 +975 x#3#4 +729 x#3#3
  +257 x#3#2 +232 x#3#1 <= 1615
 cap_14:
  +508 x#3#50 +366 x#3#49 +390 x#3#48 +355 x#3#47 +185 x#3#46 +442 x#3#45
  +856 x#3#44 +433 x#3#43 +100 x#3#42 +439 x#3#41 +941 x#3#40 +569 x#3#39
  +341 x#3#38 +434 x#3#37 +488 x#3#36 +982 x#3#35 +241 x#3#34 +700 x#3#33
  +996 x#3#32 +78 x#3#31 +276 x#3#30 +335 x#3#29 +825 x#3#28 +728 x#3#27
  +896 x#3#26 +583 x#3#25 +511 x#3#24 +501 x#3#23 +883 x#3#22 +890 x#3#21
  +584 x#3#20 +327 x#3#19 +453 x#3#18 +248 x#3#17 +697 x#3#16 +556 x#3#15
  +623 x#3#14 +611 x#3#13 +554 x#3#12 +699 x#3#11 +932 x#3#10 +375 x#3#9
  +57 x#3#8 +21 x#3#7 +339 x#3#6 +843 x#3#5 +250 x#3#4 +877 x#3#3
  +723 x#3#2 +814 x#3#1 <= 1238
 cap_15:
  +856 x#3#50 +349 x#3#49 +643 x#3#48 +860 x#3#47 +737 x#3#46 +479 x#3#45
  +714 x#3#44 +719 x#3#43 +644 x#3#42 +699 x#3#41 +388 x#3#40 +383 x#3#39
  +32 x#3#38 +796 x#3#37 +58 x#3#36 +975 x#3#35 +6 x#3#34 +363 x#3#33
  +180 x#3#32 +33 x#3#31 +192 x#3#30 +599 x#3#29 +77 x#3#28 +501 x#3#27
  +434 x#3#26 +115 x#3#25 +860 x#3#24 +112 x#3#23 +234 x#3#22 +814 x#3#21
  +911 x#3#20 +688 x#3#19 +186 x#3#18 +348 x#3#17 +232 x#3#16 +996 x#3#15
  +874 x#3#14 +671 x#3#13 +338 x#3#12 +878 x#3#11 +592 x#3#10 +434 x#3#9
  +18 x#3#8 +755 x#3#7 +865 x#3#6 +370 x#3#5 +32 x#3#4 +590 x#3#3
  +223 x#3#2 +509 x#3#1 <= 1059
 cap_16:
  +433 x#4#50 +662 x#4#49 +92 x#4#48 +208 x#4#47 +36 x#4#46 +689 x#4#45
  +658 x#4#44 +342 x#4#43 +764 x#4#42 +609 x#4#41 +414 x#4#40 +681 x#4#39
  +523 x#4#38 +150 x#4#37 +781 x#4#36 +98 x#4#35 +308 x#4#34 +715 x#4#33
  +387 x#4#32 +220 x#4#31 +260 x#4#30 +42 x#4#29 +405 x#4#28 +204 x#4#27
  +299 x#4#26 +779 x#4#25 +460 x#4#24 +568 x#4#23 +746 x#4#22 +628 x#4#21
  +298 x#4#20 +537 x#4#19 +540 x#4#18 +743 x#4#17 +349 x#4#16 +138 x#4#15
  +807 x#4#14 +608 x#4#13 +777 x#4#12 +273 x#4#11 +650 x#4#10 +534 x#4#9
  +583 x#4#8 +58 x#4#7 +621 x#4#6 +167 x#4#5 +418 x#4#4 +905 x#4#3
  +414 x#4#2 +102 x#4#1 <= 1797
 cap_17:
  +422 x#4#50 +331 x#4#49 +551 x#4#48 +966 x#4#47 +704 x#4#46 +857 x#4#45
  +625 x#4#44 +273 x#4#43 +223 x#4#42 +500 x#4#41 +670 x#4#40 +843 x#4#39
  +738 x#4#38 +471 x#4#37 +219 x#4#36 +509 x#4#35 +179 x#4#34 +247 x#4#33
  +293 x#4#32 +897 x#4#31 +100 x#4#30 +956 x#4#29 +357 x#4#28 +123 x#4#27
  +978 x#4#26 +888 x#4#25 +332 x#4#24 +275 x#4#23 +900 x#4#22 +431 x#4#21
  +783 x#4#20 +432 x#4#19 +124 x#4#18 +413 x#4#17 +788 x#4#16 +518 x#4#15
  +877 x#4#14 +282 x#4#13 +338 x#4#12 +984 x#4#11 +747 x#4#10 +305 x#4#9
  +133 x#4#8 +734 x#4#7 +454 x#4#6 +163 x#4#5 +327 x#4#4 +369 x#4#3
  +686 x#4#2 +16 x#4#1 <= 1362
 cap_18:
  +107 x#4#50 +237 x#4#49 +638 x#4#48 +363 x#4#47 +416 x#4#46 +390 x#4#45
  +155 x#4#44 +116 x#4#43 +518 x#4#42 +127 x#4#41 +62 x#4#40 +241 x#4#39
  +152 x#4#38 +237 x#4#37 +539 x#4#36 +440 x#4#35 +825 x#4#34 +333 x#4#33
  +877 x#4#32 +440 x#4#31 +470 x#4#30 +369 x#4#29 +35 x#4#28 +674 x#4#27
  +433 x#4#26 +619 x#4#25 +392 x#4#24 +801 x#4#23 +987 x#4#22 +127 x#4#21
  +828 x#4#20 +604 x#4#19 +358 x#4#18 +234 x#4#17 +118 x#4#16 +264 x#4#15
  +35 x#4#14 +743 x#4#13 +819 x#4#12 +232 x#4#11 +223 x#4#10 +582 x#4#9
  +478 x#4#8 +718 x#4#7 +493 x#4#6 +572 x#4#5 +975 x#4#4 +729 x#4#3
  +257 x#4#2 +232 x#4#1 <= 1097
 cap_19:
  +508 x#4#50 +366 x#4#49 +390 x#4#48 +355 x#4#47 +185 x#4#46 +442 x#4#45
  +856 x#4#44 +433 x#4#43 +100 x#4#42 +439 x#4#41 +941 x#4#40 +569 x#4#39
  +341 x#4#38 +434 x#4#37 +488 x#4#36 +982 x#4#35 +241 x#4#34 +700 x#4#33
  +996 x#4#32 +78 x#4#31 +276 x#4#30 +335 x#4#29 +825 x#4#28 +728 x#4#27
  +896 x#4#26 +583 x#4#25 +511 x#4#24 +501 x#4#23 +883 x#4#22 +890 x#4#21
  +584 x#4#20 +327 x#4#19 +453 x#4#18 +248 x#4#17 +697 x#4#16 +556 x#4#15
  +623 x#4#14 +611 x#4#13 +554 x#4#12 +699 x#4#11 +932 x#4#10 +375 x#4#9
  +57 x#4#8 +21 x#4#7 +339 x#4#6 +843 x#4#5 +250 x#4#4 +877 x#4#3
  +723 x#4#2 +814 x#4#1 <= 1335
 cap_20:
  +856 x#4#50 +349 x#4#49 +643 x#4#48 +860 x#4#47 +737 x#4#46 +479 x#4#45
  +714 x#4#44 +719 x#4#43 +644 x#4#42 +699 x#4#41 +388 x#4#40 +383 x#4#39
  +32 x#4#38 +796 x#4#37 +58 x#4#36 +975 x#4#35 +6 x#4#34 +363 x#4#33
  +180 x#4#32 +33 x#4#31 +192 x#4#30 +599 x#4#29 +77 x#4#28 +501 x#4#27
  +434 x#4#26 +115 x#4#25 +860 x#4#24 +112 x#4#23 +234 x#4#22 +814 x#4#21
  +911 x#4#20 +688 x#4#19 +186 x#4#18 +348 x#4#17 +232 x#4#16 +996 x#4#15
  +874 x#4#14 +671 x#4#13 +338 x#4#12 +878 x#4#11 +592 x#4#10 +434 x#4#9
  +18 x#4#8 +755 x#4#7 +865 x#4#6 +370 x#4#5 +32 x#4#4 +590 x#4#3
  +223 x#4#2 +509 x#4#1 <= 1025
 cap_21:
  +433 x#5#50 +662 x#5#49 +92 x#5#48 +208 x#5#47 +36 x#5#46 +689 x#5#45
  +658 x#5#44 +342 x#5#43 +764 x#5#42 +609 x#5#41 +414 x#5#40 +681 x#5#39
  +523 x#5#38 +150 x#5#37 +781 x#5#36 +98 x#5#35 +308 x#5#34 +715 x#5#33
  +387 x#5#32 +220 x#5#31 +260 x#5#30 +42 x#5#29 +405 x#5#28 +204 x#5#27
  +299 x#5#26 +779 x#5#25 +460 x#5#24 +568 x#5#23 +746 x#5#22 +628 x#5#21
  +298 x#5#20 +537 x#5#19 +540 x#5#18 +743 x#5#17 +349 x#5#16 +138 x#5#15
  +807 x#5#14 +608 x#5#13 +777 x#5#12 +273 x#5#11 +650 x#5#10 +534 x#5#9
  +583 x#5#8 +58 x#5#7 +621 x#5#6 +167 x#5#5 +418 x#5#4 +905 x#5#3
  +414 x#5#2 +102 x#5#1 <= 4931
 cap_22:
  +422 x#5#50 +331 x#5#49 +551 x#5#48 +966 x#5#47 +704 x#5#46 +857 x#5#45
  +625 x#5#44 +273 x#5#43 +223 x#5#42 +500 x#5#41 +670 x#5#40 +843 x#5#39
  +738 x#5#38 +471 x#5#37 +219 x#5#36 +509 x#5#35 +179 x#5#34 +247 x#5#33
  +293 x#5#32 +897 x#5#31 +100 x#5#30 +956 x#5#29 +357 x#5#28 +123 x#5#27
  +978 x#5#26 +888 x#5#25 +332 x#5#24 +275 x#5#23 +900 x#5#22 +431 x#5#21
  +783 x#5#20 +432 x#5#19 +124 x#5#18 +413 x#5#17 +788 x#5#16 +518 x#5#15
  +877 x#5#14 +282 x#5#13 +338 x#5#12 +984 x#5#11 +747 x#5#10 +305 x#5#9
  +133 x#5#8 +734 x#5#7 +454 x#5#6 +163 x#5#5 +327 x#5#4 +369 x#5#3
  +686 x#5#2 +16 x#5#1 <= 5458
 cap_23:
  +107 x#5#50 +237 x#5#49 +638 x#5#48 +363 x#5#47 +416 x#5#46 +390 x#5#45
  +155 x#5#44 +116 x#5#43 +518 x#5#42 +127 x#5#41 +62 x#5#40 +241 x#5#39
  +152 x#5#38 +237 x#5#37 +539 x#5#36 +440 x#5#35 +825 x#5#34 +333 x#5#33
  +877 x#5#32 +440 x#5#31 +470 x#5#30 +369 x#5#29 +35 x#5#28 +674 x#5#27
  +433 x#5#26 +619 x#5#25 +392 x#5#24 +801 x#5#23 +987 x#5#22 +127 x#5#21
  +828 x#5#20 +604 x#5#19 +358 x#5#18 +234 x#5#17 +118 x#5#16 +264 x#5#15
  +35 x#5#14 +743 x#5#13 +819 x#5#12 +232 x#5#11 +223 x#5#10 +582 x#5#9
  +478 x#5#8 +718 x#5#7 +493 x#5#6 +572 x#5#5 +975 x#5#4 +729 x#5#3
  +257 x#5#2 +232 x#5#1 <= 4742
 cap_24:
  +508 x#5#50 +366 x#5#49 +390 x#5#48 +355 x#5#47 +185 x#5#46 +442 x#5#45
  +856 x#5#44 +433 x#5#43 +100 x#5#42 +439 x#5#41 +941 x#5#40 +569 x#5#39
  +341 x#5#38 +434 x#5#37 +488 x#5#36 +982 x#5#35 +241 x#5#34 +700 x#5#33
  +996 x#5#32 +78 x#5#31 +276 x#5#30 +335 x#5#29 +825 x#5#28 +728 x#5#27
  +896 x#5#26 +583 x#5#25 +511 x#5#24 +501 x#5#23 +883 x#5#22 +890 x#5#21
  +584 x#5#20 +327 x#5#19 +453 x#5#18 +248 x#5#17 +697 x#5#16 +556 x#5#15
  +623 x#5#14 +611 x#5#13 +554 x#5#12 +699 x#5#11 +932 x#5#10 +375 x#5#9
  +57 x#5#8 +21 x#5#7 +339 x#5#6 +843 x#5#5 +250 x#5#4 +877 x#5#3
  +723 x#5#2 +814 x#5#1 <= 6170
 cap_25:
  +856 x#5#50 +349 x#5#49 +643 x#5#48 +860 x#5#47 +737 x#5#46 +479 x#5#45
  +714 x#5#44 +719 x#5#43 +644 x#5#42 +699 x#5#41 +388 x#5#40 +383 x#5#39
  +32 x#5#38 +796 x#5#37 +58 x#5#36 +975 x#5#35 +6 x#5#34 +363 x#5#33
  +180 x#5#32 +33 x#5#31 +192 x#5#30 +599 x#5#29 +77 x#5#28 +501 x#5#27
  +434 x#5#26 +115 x#5#25 +860 x#5#24 +112 x#5#23 +234 x#5#22 +814 x#5#21
  +911 x#5#20 +688 x#5#19 +186 x#5#18 +348 x#5#17 +232 x#5#16 +996 x#5#15
  +874 x#5#14 +671 x#5#13 +338 x#5#12 +878 x#5#11 +592 x#5#10 +434 x#5#9
  +18 x#5#8 +755 x#5#7 +865 x#5#6 +370 x#5#5 +32 x#5#4 +590 x#5#3
  +223 x#5#2 +509 x#5#1 <= 6019
 one_1:
  + x#5#1 + x#4#1 + x#3#1 + x#2#1 + x#1#1 <= 1
 one_2:
  + x#5#2 + x#4#2 + x#3#2 + x#2#2 + x#1#2 <= 1
 one_3:
  + x#5#3 + x#4#3 + x#3#3 + x#2#3 + x#1#3 <= 1
 one_4:
  + x#5#4 + x#4#4 + x#3#4 + x#2#4 + x#1#4 <= 1
 one_5:
  + x#5#5 + x#4#5 + x#3#5 + x#2#5 + x#1#5 <= 1
 one_6:
  + x#5#6 + x#4#6 + x#3#6 + x#2#6 + x#1#6 <= 1
 one_7:
  + x#5#7 + x#4#7 + x#3#7 + x#2#7 + x#1#7 <= 1
 one_8:
  + x#5#8 + x#4#8 + x#3#8 + x#2#8 + x#1#8 <= 1
 one_9:
  + x#5#9 + x#4#9 + x#3#9 + x#2#9 + x#1#9 <= 1
 one_10:
  + x#5#10 + x#4#10 + x#3#10 + x#2#10 + x#1#10 <= 1
 one_11:
  + x#5#11 + x#4#11 + x#3#11 + x#2#11 + x#1#11 <= 1
 one_12:
  + x#5#12 + x#4#12 + x#3#12 + x#2#12 + x#1#12 <= 1
 one_13:
  + x#5#13 + x#4#13 + x#3#13 + x#2#13 + x#1#13 <= 1
 one_14:
  + x#5#14 + x#4#14 + x#3#14 + x#2#14 + x#1#14 <= 1
 one_15:
  + x#5#15 + x#4#15 + x#3#15 + x#2#15 + x#1#15 <= 1
 one_16:
  + x#5#16 + x#4#16 + x#3#16 + x#2#16 + x#1#16 <= 1
 one_17:
  + x#5#17 + x#4#17 + x#3#17 + x#2#17 + x#1#17 <= 1
 one_18:
  + x#5#18 + x#4#18 + x#3#18 + x#2#18 + x#1#18 <= 1
 one_19:
  + x#5#19 + x#4#19 + x#3#19 + x#2#19 + x#1#19 <= 1
 one_20:
  + x#5#20 + x#4#20 + x#3#20 + x#2#20 + x#1#20 <= 1
 one_21:
  + x#5#21 + x#4#21 + x#3#21 + x#2#21 + x#1#21 <= 1
 one_22:
  + x#5#22 + x#4#22 + x#3#22 + x#2#22 + x#1#22 <= 1
 one_23:
  + x#5#23 + x#4#23 + x#3#23 + x#2#23 + x#1#23 <= 1
 one_24:
  + x#5#24 + x#4#24 + x#3#24 + x#2#24 + x#1#24 <= 1
 one_25:
  + x#5#25 + x#4#25 + x#3#25 + x#2#25 + x#1#25 <= 1
 one_26:
  + x#5#26 + x#4#26 + x#3#26 + x#2#26 + x#1#26 <= 1
 one_27:
  + x#5#27 + x#4#27 + x#3#27 + x#2#27 + x#1#27 <= 1
 one_28:
  + x#5#28 + x#4#28 + x#3#28 + x#2#28 + x#1#28 <= 1
 one_29:
  + x#5#29 + x#4#29 + x#3#29 + x#2#29 + x#1#29 <= 1
 one_30:
  + x#5#30 + x#4#30 + x#3#30 + x#2#30 + x#1#30 <= 1
 one_31:
  + x#5#31 + x#4#31 + x#3#31 + x#2#31 + x#1#31 <= 1
 one_32:
  + x#5#32 + x#4#32 + x#3#32 + x#2#32 + x#1#32 <= 1
 one_33:
  + x#5#33 + x#4#33 + x#3#33 + x#2#33 + x#1#33 <= 1
 one_34:
  + x#5#34 + x#4#34 + x#3#34 + x#2#34 + x#1#34 <= 1
 one_35:
  + x#5#35 + x#4#35 + x#3#35 + x#2#35 + x#1#35 <= 1
 one_36:
  + x#5#36 + x#4#36 + x#3#36 + x#2#36 + x#1#36 <= 1
 one_37:
  + x#5#37 + x#4#37 + x#3#37 + x#2#37 + x#1#37 <= 1
 one_38:
  + x#5#38 + x#4#38 + x#3#38 + x#2#38 + x#1#38 <= 1
 one_39:
  + x#5#39 + x#4#39 + x#3#39 + x#2#39 + x#1#39 <= 1
 one_40:
  + x#5#40 + x#4#40 + x#3#40 + x#2#40 + x#1#40 <= 1
 one_41:
  + x#5#41 + x#4#41 + x#3#41 + x#2#41 + x#1#41 <= 1
 one_42:
  + x#5#42 + x#4#42 + x#3#42 + x#2#42 + x#1#42 <= 1
 one_43:
  + x#5#43 + x#4#43 + x#3#43 + x#2#43 + x#1#43 <= 1
 one_44:
  + x#5#44 + x#4#44 + x#3#44 + x#2#44 + x#1#44 <= 1
 one_45:
  + x#5#45 + x#4#45 + x#3#45 + x#2#45 + x#1#45 <= 1
 one_46:
  + x#5#46 + x#4#46 + x#3#46 + x#2#46 + x#1#46 <= 1
 one_47:
  + x#5#47 + x#4#47 + x#3#47 + x#2#47 + x#1#47 <= 1
 one_48:
  + x#5#48 + x#4#48 + x#3#48 + x#2#48 + x#1#48 <= 1
 one_49:
  + x#5#49 + x#4#49 + x#3#49 + x#2#49 + x#1#49 <= 1
 one_50:
  + x#5#50 + x#4#50 + x#3#50 + x#2#50 + x#1#50 <= 1
Bounds
 0 <= x#1#1 <= 1
 0 <= x#1#2 <= 1
 0 <= x#1#3 <= 1
 0 <= x#1#4 <= 1
 0 <= x#1#5 <= 1
 0 <= x#1#6 <= 1
 0 <= x#1#7 <= 1
 0 <= x#1#8 <= 1
 0 <= x#1#9 <= 1
 0 <= x#1#10 <= 1
 0 <= x#1#11 <= 1
 0 <= x#1#12 <= 1
 0 <= x#1#13 <= 1
 0 <= x#1#14 <= 1
 0 <= x#1#15 <= 1
 0 <= x#1#16 <= 1
 0 <= x#1#17 <= 1
 0 <= x#1#18 <= 1
 0 <= x#1#19 <= 1
 0 <= x#1#20 <= 1
 0 <= x#1#21 <= 1
 0 <= x#1#22 <= 1
 0 <= x#1#23 <= 1
 0 <= x#1#24 <= 1
 0 <= x#1#25 <= 1
 0 <= x#1#26 <= 1
 0 <= x#1#27 <= 1
 0 <= x#1#28 <= 1
 0 <= x#1#29 <= 1
 0 <= x#1#30 <= 1
 0 <= x#1#31 <= 1
 0 <= x#1#32 <= 1
 0 <= x#1#33 <= 1
 0 <= x#1#34 <= 1
 0 <= x#1#35 <= 1
 0 <= x#1#36 <= 1
 0 <= x#1#37 <= 1
 0 <= x#1#38 <= 1
 0 <= x#1#39 <= 1
 0 <= x#1#40 <= 1
 0 <= x#1#41 <= 1
 0 <= x#1#42 <= 1
 0 <= x#1#43 <= 1
 0 <= x#1#44 <= 1
 0 <= x#1#45 <= 1
 0 <= x#1#46 <= 1
 0 <= x#1#47 <= 1
 0 <= x#1#48 <= 1
 0 <= x#1#49 <= 1
 0 <= x#1#50 <= 1
 0 <= x#2#1 <= 1
 0 <= x#2#2 <= 1
 0 <= x#2#3 <= 1
 0 <= x#2#4 <= 1
 0 <= x#2#5 <= 1
 0 <= x#2#6 <= 1
 0 <= x#2#7 <= 1
 0 <= x#2#8 <= 1
 0 <= x#2#9 <= 1
 0 <= x#2#10 <= 1
 0 <= x#2#11 <= 1
 0 <= x#2#12 <= 1
 0 <= x#2#13 <= 1
 0 <= x#2#14 <= 1
 0 <= x#2#15 <= 1
 0 <= x#2#16 <= 1
 0 <= x#2#17 <= 1
 0 <= x#2#18 <= 1
 0 <= x#2#19 <= 1
 0 <= x#2#20 <= 1
 0 <= x#2#21 <= 1
 0 <= x#2#22 <= 1
 0 <= x#2#23 <= 1
 0 <= x#2#24 <= 1
 0 <= x#2#25 <= 1
 0 <= x#2#26 <= 1
 0 <= x#2#27 <= 1
 0 <= x#2#28 <= 1
 0 <= x#2#29 <= 1
 0 <= x#2#30 <= 1
 0 <= x#2#31 <= 1
 0 <= x#2#32 <= 1
 0 <= x#2#33 <= 1
 0 <= x#2#34 <= 1
 0 <= x#2#35 <= 1
 0 <= x#2#36 <= 1
 0 <= x#2#37 <= 1
 0 <= x#2#38 <= 1
 0 <= x#2#39 <= 1
 0 <= x#2#40 <= 1
 0 <= x#2#41 <= 1
 0 <= x#2#42 <= 1
 0 <= x#2#43 <= 1
 0 <= x#2#44 <= 1
 0 <= x#2#45 <= 1
 0 <= x#2#46 <= 1
 0 <= x#2#47 <= 1
 0 <= x#2#48 <= 1
 0 <= x#2#49 <= 1
 0 <= x#2#50 <= 1
 0 <= x#3#1 <= 1
 0 <= x#3#2 <= 1
 0 <= x#3#3 <= 1
 0 <= x#3#4 <= 1
 0 <= x#3#5 <= 1
 0 <= x#3#6 <= 1
 0 <= x#3#7 <= 1
 0 <= x#3#8 <= 1
 0 <= x#3#9 <= 1
 0 <= x#3#10 <= 1
 0 <= x#3#11 <= 1
 0 <= x#3#12 <= 1
 0 <= x#3#13 <= 1
 0 <= x#3#14 <= 1
 0 <= x#3#15 <= 1
 0 <= x#3#16 <= 1
 0 <= x#3#17 <= 1
 0 <= x#3#18 <= 1
 0 <= x#3#19 <= 1
 0 <= x#3#20 <= 1
 0 <= x#3#21 <= 1
 0 <= x#3#22 <= 1
 0 <= x#3#23 <= 1
 0 <= x#3#24 <= 1
 0 <= x#3#25 <= 1
 0 <= x#3#26 <= 1
 0 <= x#3#27 <= 1
 0 <= x#3#28 <= 1
 0 <= x#3#29 <= 1
 0 <= x#3#30 <= 1
 0 <= x#3#31 <= 1
 0 <= x#3#32 <= 1
 0 <= x#3#33 <= 1
 0 <= x#3#34 <= 1
 0 <= x#3#35 <= 1
 0 <= x#3#36 <= 1
 0 <= x#3#37 <= 1
 0 <= x#3#38 <= 1
 0 <= x#3#39 <= 1
 0 <= x#3#40 <= 1
 0 <= x#3#41 <= 1
 0 <= x#3#42 <= 1
 0 <= x#3#43 <= 1
 0 <= x#3#44 <= 1
 0 <= x#3#45 <= 1
 0 <= x#3#46 <= 1
 0 <= x#3#47 <= 1
 0 <= x#3#48 <= 1
 0 <= x#3#49 <= 1
 0 <= x#3#50 <= 1
 0 <= x#4#1 <= 1
 0 <= x#4#2 <= 1
 0 <= x#4#3 <= 1
 0 <= x#4#4 <= 1
 0 <= x#4#5 <= 1
 0 <= x#4#6 <= 1
 0 <= x#4#7 <= 1
 0 <= x#4#8 <= 1
 0 <= x#4#9 <= 1
 0 <= x#4#10 <= 1
 0 <= x#4#11 <= 1
 0 <= x#4#12 <= 1
 0 <= x#4#13 <= 1
 0 <= x#4#14 <= 1
 0 <= x#4#15 <= 1
 0 <= x#4#16 <= 1
 0 <= x#4#17 <= 1
 0 <= x#4#18 <= 1
 0 <= x#4#19 <= 1
 0 <= x#4#20 <= 1
 0 <= x#4#21 <= 1
 0 <= x#4#22 <= 1
 0 <= x#4#23 <= 1
 0 <= x#4#24 <= 1
 0 <= x#4#25 <= 1
 0 <= x#4#26 <= 1
 0 <= x#4#27 <= 1
 0 <= x#4#28 <= 1
 0 <= x#4#29 <= 1
 0 <= x#4#30 <= 1
 0 <= x#4#31 <= 1
 0 <= x#4#32 <= 1
 0 <= x#4#33 <= 1
 0 <= x#4#34 <= 1
 0 <= x#4#35 <= 1
 0 <= x#4#36 <= 1
 0 <= x#4#37 <= 1
 0 <= x#4#38 <= 1
 0 <= x#4#39 <= 1
 0 <= x#4#40 <= 1
 0 <= x#4#41 <= 1
 0 <= x#4#42 <= 1
 0 <= x#4#43 <= 1
 0 <= x#4#44 <= 1
 0 <= x#4#45 <= 1
 0 <= x#4#46 <= 1
 0 <= x#4#47 <= 1
 0 <= x#4#48 <= 1
 0 <= x#4#49 <= 1
 0 <= x#4#50 <= 1
 0 <= x#5#1 <= 1
 0 <= x#5#2 <= 1
 0 <= x#5#3 <= 1
 0 <= x#5#4 <= 1
 0 <= x#5#5 <= 1
 0 <= x#5#6 <= 1
 0 <= x#5#7 <= 1
 0 <= x#5#8 <= 1
 0 <= x#5#9 <= 1
 0 <= x#5#10 <= 1
 0 <= x#5#11 <= 1
 0 <= x#5#12 <= 1
 0 <= x#5#13 <= 1
 0 <= x#5#14 <= 1
 0 <= x#5#15 <= 1
 0 <= x#5#16 <= 1
 0 <= x#5#17 <= 1
 0 <= x#5#18 <= 1
 0 <= x#5#19 <= 1
 0 <= x#5#20 <= 1
 0 <= x#5#21 <= 1
 0 <= x#5#22 <= 1
 0 <= x#5#23 <= 1
 0 <= x#5#24 <= 1
 0 <= x#5#25 <= 1
 0 <= x#5#26 <= 1
 0 <= x#5#27 <= 1
 0 <= x#5#28 <= 1
 0 <= x#5#29 <= 1
 0 <= x#5#30 <= 1
 0 <= x#5#31 <= 1
 0 <= x#5#32 <= 1
 0 <= x#5#33 <= 1
 0 <= x#5#34 <= 1
 0 <= x#5#35 <= 1
 0 <= x#5#36 <= 1
 0 <= x#5#37 <= 1
 0 <= x#5#38 <= 1
 0 <= x#5#39 <= 1
 0 <= x#5#40 <= 1
 0 <= x#5#41 <= 1
 0 <= x#5#42 <= 1
 0 <= x#5#43 <= 1
 0 <= x#5#44 <= 1
 0 <= x#5#45 <= 1
 0 <= x#5#46 <= 1
 0 <= x#5#47 <= 1
 0 <= x#5#48 <= 1
 0 <= x#5#49 <= 1
 0 <= x#5#50 <= 1
General
 x#1#1
 x#1#2
 x#1#3
 x#1#4
 x#1#5
 x#1#6
 x#1#7
 x#1#8
 x#1#9
 x#1#10
 x#1#11
 x#1#12
 x#1#13
 x#1#14
 x#1#15
 x#1#16
 x#1#17
 x#1#18
 x#1#19
 x#1#20
 x#1#21
 x#1#22
 x#1#23
 x#1#24
 x#1#25
 x#1#26
 x#1#27
 x#1#28
 x#1#29
 x#1#30
 x#1#31
 x#1#32
 x#1#33
 x#1#34
 x#1#35
 x#1#36
 x#1#37
 x#1#38
 x#1#39
 x#1#40
 x#1#41
 x#1#42
 x#1#43
 x#1#44
 x#1#45
 x#1#46
 x#1#47
 x#1#48
 x#1#49
 x#1#50
 x#2#1
 x#2#2
 x#2#3
 x#2#4
 x#2#5
 x#2#6
 x#2#7
 x#2#8
 x#2#9
 x#2#10
 x#2#11
 x#2#12
 x#2#13
 x#2#14
 x#2#15
 x#2#16
 x#2#17
 x#2#18
 x#2#19
 x#2#20
 x#2#21
 x#2#22
 x#2#23
 x#2#24
 x#2#25
 x#2#26
 x#2#27
 x#2#28
 x#2#29
 x#2#30
 x#2#31
 x#2#32
 x#2#33
 x#2#34
 x#2#35
 x#2#36
 x#2#37
 x#2#38
 x#2#39
 x#2#40
 x#2#41
 x#2#42
 x#2#43
 x#2#44
 x#2#45
 x#2#46
 x#2#47
 x#2#48
 x#2#49
 x#2#50
 x#3#1
 x#3#2
 x#3#3
 x#3#4
 x#3#5
 x#3#6
 x#3#7
 x#3#8
 x#3#9
 x#3#10
 x#3#11
 x#3#12
 x#3#13
 x#3#14
 x#3#15
 x#3#16
 x#3#17
 x#3#18
 x#3#19
 x#3#20
 x#3#21
 x#3#22
 x#3#23
 x#3#24
 x#3#25
 x#3#26
 x#3#27
 x#3#28
 x#3#29
 x#3#30
 x#3#31
 x#3#32
 x#3#33
 x#3#34
 x#3#35
 x#3#36
 x#3#37
 x#3#38
 x#3#39
 x#3#40
 x#3#41
 x#3#42
 x#3#43
 x#3#44
 x#3#45
 x#3#46
 x#3#47
 x#3#48
 x#3#49
 x#3#50
 x#4#1
 x#4#2
 x#4#3
 x#4#4
 x#4#5
 x#4#6
 x#4#7
 x#4#8
 x#4#9
 x#4#10
 x#4#11
 x#4#12
 x#4#13
 x#4#14
 x#4#15
 x#4#16
 x#4#17
 x#4#18
 x#4#19
 x#4#20
 x#4#21
 x#4#22
 x#4#23
 x#4#24
 x#4#25
 x#4#26
 x#4#27
 x#4#28
 x#4#29
 x#4#30
 x#4#31
 x#4#32
 x#4#33
 x#4#34
 x#4#35
 x#4#36
 x#4#37
 x#4#38
 x#4#39
 x#4#40
 x#4#41
 x#4#42
 x#4#43
 x#4#44
 x#4#45
 x#4#46
 x#4#47
 x#4#48
 x#4#49
 x#4#50
 x#5#1
 x#5#2
 x#5#3
 x#5#4
 x#5#5
 x#5#6
 x#5#7
 x#5#8
 x#5#9
 x#5#10
 x#5#11
 x#5#12
 x#5#13
 x#5#14
 x#5#15
 x#5#16
 x#5#17
 x#5#18
 x#5#19
 x#5#20
 x#5#21
 x#5#22
 x#5#23
 x#5#24
 x#5#25
 x#5#26
 x#5#27
 x#5#28
 x#5#29
 x#5#30
 x#5#31
 x#5#32
 x#5#33
 x#5#34
 x#5#35
 x#5#36
 x#5#37
 x#5#38
 x#5#39
 x#5#40
 x#5#41
 x#5#42
 x#5#43
 x#5#44
 x#5#45
 x#5#46
 x#5#47
 x#5#48
 x#5#49
 x#5#50
End
