src/zimpl/instances/knapsack50nr9.txt
# Nr of Items 
50
# Nr of Knapsacks 
5
# Nr of Constraints 
5
# Items profits:
548 
64 
159 
435 
135 
694 
483 
827 
835 
757 
657 
867 
416 
238 
383 
447 
914 
335 
21 
594 
254 
930 
583 
741 
837 
820 
240 
120 
463 
665 
279 
830 
48 
332 
204 
468 
221 
172 
321 
241 
261 
943 
156 
790 
275 
273 
995 
917 
594 
772 

# Items weights:
102 16 232 814 509 
414 686 257 723 223 
905 369 729 877 590 
418 327 975 250 32 
167 163 572 843 370 
621 454 493 339 865 
58 734 718 21 755 
583 133 478 57 18 
534 305 582 375 434 
650 747 223 932 592 
273 984 232 699 878 
777 338 819 554 338 
608 282 743 611 671 
807 877 35 623 874 
138 518 264 556 996 
349 788 118 697 232 
743 413 234 248 348 
540 124 358 453 186 
537 432 604 327 688 
298 783 828 584 911 
628 431 127 890 814 
746 900 987 883 234 
568 275 801 501 112 
460 332 392 511 860 
779 888 619 583 115 
299 978 433 896 434 
204 123 674 728 501 
405 357 35 825 77 
42 956 369 335 599 
260 100 470 276 192 
220 897 440 78 33 
387 293 877 996 180 
715 247 333 700 363 
308 179 825 241 6 
98 509 440 982 975 
781 219 539 488 58 
150 471 237 434 796 
523 738 152 341 32 
681 843 241 569 383 
414 670 62 941 388 
609 500 127 439 699 
764 223 518 100 644 
342 273 116 433 719 
658 625 155 856 714 
689 857 390 442 479 
36 704 416 185 737 
208 966 363 355 860 
92 551 638 390 643 
662 331 237 366 349 
433 422 107 508 856 
# Knapsacks:
1273 1747 1373 1614 1164 
1446 2007 1724 2100 1052 
1731 2022 1615 1238 1059 
1797 1362 1097 1335 1025 
4931 5458 4742 6170 6019 
